h = 27;
w = 27;
n_pieces = 21;
n_shapes = 40;
shape = [{1}, {2}, {3}, {4}, {5}, {6}, {7}, {8}, {9}, {10}, {11}, {12}, {13}, {14}, {15}, {16}, {17}, {18}, {19}, {20}, {21}, {22}, {23}, {24}, {25}, {26}, {27}, {28}, {29}, {30}, {31}, {32}, {33}, {34}, {35}, {36}, {37}, {38}, {39}, {40}];
shape_index = [{1}, {2, 3}, {4, 5}, {6, 7}, {8, 9}, {10, 11}, {12, 13}, {14, 15}, {16, 17}, {18, 19}, {20, 21}, {22, 23}, {24, 25}, {26, 27}, {28}, {29, 30}, {31, 32}, {33, 34}, {35, 36}, {37, 38}, {39, 40}];
rect_rep = [1, 1, 1, 1, 1, 1, 1, 1, 1, 1, 1, 1, 1, 1, 1, 1, 1, 1, 1, 1, 1];
rect_copies = 21;
coordinate_shapes = [0, 1, 2, 3, 4, 5, 6, 7, 8, 9, 10, 11, 12, 13, 14, 15, 16, 17, 18, 19, 20];
rect_size = [|3, 3
|3, 4
|4, 3
|3, 5
|5, 3
|3, 6
|6, 3
|3, 7
|7, 3
|3, 8
|8, 3
|3, 9
|9, 3
|3, 10
|10, 3
|3, 11
|11, 3
|3, 12
|12, 3
|3, 19
|19, 3
|3, 20
|20, 3
|3, 21
|21, 3
|4, 3
|3, 4
|4, 4
|4, 6
|6, 4
|4, 7
|7, 4
|4, 8
|8, 4
|4, 14
|14, 4
|4, 19
|19, 4
|4, 20
|20, 4
|];
rect_offset = [|0, 0
|0, 0
|0, 0
|0, 0
|0, 0
|0, 0
|0, 0
|0, 0
|0, 0
|0, 0
|0, 0
|0, 0
|0, 0
|0, 0
|0, 0
|0, 0
|0, 0
|0, 0
|0, 0
|0, 0
|0, 0
|0, 0
|0, 0
|0, 0
|0, 0
|0, 0
|0, 0
|0, 0
|0, 0
|0, 0
|0, 0
|0, 0
|0, 0
|0, 0
|0, 0
|0, 0
|0, 0
|0, 0
|0, 0
|0, 0
|];
rectangles = [|3, 3
|3, 4
|3, 5
|3, 6
|3, 7
|3, 8
|3, 9
|3, 10
|3, 11
|3, 12
|3, 19
|3, 20
|3, 21
|4, 3
|4, 4
|4, 6
|4, 7
|4, 8
|4, 14
|4, 19
|4, 20
|];
